500
1000
626
625
624
622
620
620
620
619
613
611
610
609
608
606
606
604
601
601
601
600
598
598
597
591
587
586
586
586
584
584
584
584
583
583
582
582
581
581
581
579
579
579
578
578
578
576
573
570
569
567
567
565
564
562
559
559
558
557
555
553
553
550
550
547
545
544
543
542
541
541
540
540
539
539
537
536
535
533
532
531
529
528
527
527
525
524
524
523
521
520
520
518
518
518
517
517
516
516
515
514
514
512
507
506
505
505
504
503
502
502
502
501
500
499
499
497
497
496
495
495
495
494
493
491
491
487
485
484
483
482
480
479
478
475
475
475
472
471
471
469
468
467
466
465
465
463
463
462
462
462
462
461
461
461
460
458
457
457
456
454
454
452
451
447
443
443
442
439
439
439
438
437
435
434
433
431
431
428
428
428
427
427
425
425
423
421
420
419
417
416
415
412
411
411
406
405
404
401
401
400
397
397
396
395
394
394
394
393
393
390
390
388
388
386
385
383
381
378
378
377
377
376
375
375
373
372
370
369
369
367
366
365
365
364
364
363
360
359
359
358
354
353
353
353
352
350
349
348
345
345
345
344
342
342
341
340
335
333
333
332
331
331
329
328
327
326
326
325
325
322
322
321
321
321
320
318
317
317
317
317
317
317
316
315
314
313
313
312
310
308
307
307
306
306
306
302
298
296
296
295
295
295
293
293
291
289
288
287
287
286
285
285
282
281
280
275
274
274
270
269
269
268
268
266
265
265
263
263
263
263
262
261
258
257
257
257
255
253
252
250
250
246
243
243
240
240
237
237
236
234
234
233
231
230
228
227
226
226
225
225
223
221
220
220
218
217
217
216
214
212
212
211
206
206
203
203
202
202
201
201
201
201
200
194
194
194
192
191
190
186
186
183
183
174
171
167
167
167
166
163
163
162
159
158
157
156
156
151
150
148
145
145
143
142
141
137
136
132
132
131
131
129
129
128
126
126
125
125
122
121
120
119
114
113
112
111
109
109
109
109
106
105
105
102
102
100
95
95
91
91
88
88
87
84
84
82
81
80
78
76
75
75
73
73
73
72
69
69
68
67
65
65
64
64
62
61
59
57
57
53
51
51
49
49
49
49
48
47
46
45
44
43
42
42
41
39
39
38
37
35
